50
    1    14     4
    2    56    46
    3    58    48
    4    29    19
    5    64    54
    6    30    20
    7    73    63
    8   110   100
    9    38    28
   10    16     6
   11   104    94
   12    51    41
   13    11     1
   14    80    70
   15    18     8
   16    70    60
   17    79    69
   18   105    95
   19    80    70
   20    93    83
   21    18     8
   22   105    95
   23    93    83
   24   105    95
   25   106    96
   26    73    63
   27    26    16
   28    52    42
   29    71    61
   30    81    71
   31    11     1
   32    62    52
   33    91    81
   34    68    58
   35   106    96
   36    92    82
   37   107    97
   38    97    87
   39    68    58
   40    16     6
   41    47    37
   42    80    70
   43    54    44
   44    65    55
   45    66    56
   46    62    52
   47    41    31
   48    74    64
   49    75    65
   50   103    93
931
